45
5 1 9
5 2 7
6 1 10
6 2 6
6 3 6
6 4 3
6 5 10
7 2 3
7 4 3
8 3 7
8 5 2
8 7 8
9 1 6
9 2 10
9 3 5
9 4 3
9 6 7
9 7 5
10 0 8
10 3 6
10 5 9
10 6 4
10 8 3
10 9 6
11 1 2
11 2 2
11 3 6
11 4 7
11 6 1
11 8 8
11 9 4
11 10 5
12 2 4
12 4 4
12 5 7
12 6 3
12 8 8
12 9 7
12 11 1
13 1 1
13 2 3
13 3 6
13 8 8
13 9 2
14 0 9
14 2 10
14 4 10
14 8 8
14 11 7
14 12 8
15 2 3
15 3 10
15 4 2
15 6 3
15 8 2
15 9 4
15 12 4
15 14 8
16 1 5
16 2 4
16 5 1
16 7 9
16 11 6
16 12 3
16 13 1
16 14 1
16 15 10
17 0 9
17 1 5
17 3 8
17 7 7
17 10 4
17 11 8
17 12 7
17 15 1
17 16 2
18 0 10
18 1 9
18 3 1
18 6 1
18 7 10
18 10 8
18 12 9
18 15 5
18 16 1
18 17 10
19 0 3
19 2 5
19 4 9
19 8 3
19 9 8
20 0 5
20 4 4
20 6 3
20 9 4
20 11 7
20 13 5
20 14 10
20 15 2
20 18 6
21 0 5
21 1 10
21 4 1
21 7 6
21 11 1
21 16 6
21 20 4
22 0 9
22 5 2
22 6 2
22 7 6
22 8 1
22 9 9
22 10 2
22 13 1
22 14 9
22 15 3
22 17 4
22 18 9
22 20 10
23 0 6
23 2 10
23 4 2
23 5 8
23 6 3
23 7 7
23 12 3
23 15 3
23 16 1
23 18 3
23 19 10
23 20 1
23 21 7
24 0 7
24 2 9
24 9 7
24 13 3
24 14 10
24 20 2
24 21 6
24 22 1
24 23 7
25 1 9
25 4 5
25 6 7
25 8 3
25 10 10
25 12 7
25 15 2
25 17 9
25 19 7
25 23 5
26 3 3
26 4 10
26 7 5
26 8 9
26 12 7
26 13 5
26 15 9
26 16 7
26 18 1
26 20 2
26 21 2
26 22 5
26 25 2
27 3 1
27 4 9
27 6 7
27 8 4
27 9 1
27 10 8
27 13 8
27 15 7
27 17 2
27 20 1
27 21 5
27 22 8
27 23 4
27 26 1
28 1 9
28 2 5
28 4 9
28 7 8
28 8 9
28 9 10
28 10 5
28 11 3
28 12 9
28 13 9
28 14 5
28 15 6
28 16 2
28 19 6
28 20 7
28 22 7
28 23 1
28 24 2
28 27 4
29 0 6
29 1 5
29 3 6
29 4 3
29 5 4
29 6 7
29 7 3
29 10 3
29 11 2
29 15 2
29 17 6
29 19 3
29 20 1
29 21 2
29 22 8
30 4 10
30 5 7
30 11 6
30 12 6
30 16 6
30 17 9
30 19 4
30 20 1
30 22 7
30 23 10
30 24 9
30 25 2
30 27 3
30 28 4
30 29 1
31 1 1
31 2 4
31 6 7
31 8 10
31 10 5
31 17 7
31 18 5
31 19 2
31 21 9
31 22 3
31 23 4
31 25 2
31 26 5
31 28 9
32 2 3
32 3 2
32 6 1
32 8 7
32 9 6
32 11 7
32 12 4
32 13 3
32 14 6
32 16 1
32 17 5
32 18 6
32 19 10
32 20 4
32 24 9
32 25 7
32 30 4
33 0 6
33 1 7
33 2 3
33 5 2
33 6 5
33 7 3
33 8 10
33 9 8
33 10 8
33 12 1
33 13 6
33 19 10
33 20 8
33 21 3
33 22 7
33 23 7
33 27 1
33 28 1
33 32 6
34 0 9
34 5 9
34 6 5
34 7 10
34 8 2
34 9 8
34 11 6
34 12 3
34 13 5
34 14 7
34 15 4
34 16 5
34 18 3
34 19 6
34 23 3
34 24 2
34 25 2
34 26 7
34 29 3
34 30 7
34 31 5
34 32 4
35 0 9
35 2 6
35 6 7
35 7 7
35 12 2
35 17 5
35 18 9
35 19 8
35 21 8
35 24 2
35 26 5
35 31 1
35 32 1
36 0 7
36 2 2
36 3 6
36 4 4
36 6 9
36 7 5
36 11 1
36 14 9
36 15 9
36 16 6
36 19 3
36 20 5
36 22 4
36 23 3
36 24 3
36 25 2
36 27 10
36 32 8
36 34 10
36 35 1
37 0 8
37 1 4
37 5 10
37 7 2
37 11 6
37 12 10
37 13 7
37 16 5
37 20 3
37 22 9
37 26 3
37 29 9
37 30 4
37 31 6
37 34 8
37 35 4
38 1 10
38 2 6
38 3 7
38 4 9
38 8 3
38 10 5
38 11 6
38 12 7
38 13 9
38 14 5
38 20 4
38 21 6
38 22 5
38 26 6
38 29 2
38 30 5
38 32 1
38 34 6
39 0 2
39 2 3
39 4 6
39 5 9
39 6 9
39 8 7
39 10 9
39 12 7
39 14 8
39 15 8
39 19 10
39 20 8
39 21 8
39 25 4
39 26 7
39 28 1
39 29 1
39 31 7
39 35 10
39 36 1
39 37 10
40 0 1
40 4 10
40 6 1
40 7 2
40 8 6
40 10 9
40 12 3
40 13 9
40 14 8
40 16 6
40 21 6
40 23 10
40 24 4
40 28 2
40 29 8
40 32 10
40 33 5
40 34 9
40 35 2
40 36 2
41 1 8
41 2 2
41 3 6
41 4 2
41 5 7
41 6 1
41 7 9
41 8 8
41 10 4
41 12 10
41 17 5
41 18 3
41 19 10
41 22 8
41 23 5
41 24 7
41 26 4
41 28 5
41 32 7
41 34 8
41 36 10
41 37 2
42 1 8
42 2 8
42 4 8
42 5 7
42 7 2
42 8 1
42 13 5
42 14 9
42 18 9
42 21 5
42 22 9
42 23 7
42 26 4
42 27 10
42 29 8
42 30 10
42 31 4
42 33 4
42 35 7
42 36 3
42 40 6
43 0 2
43 1 1
43 2 3
43 5 1
43 9 9
43 11 2
43 14 10
43 16 1
43 18 7
43 24 1
43 29 5
43 30 10
43 31 8
43 37 2
43 38 3
43 39 1
43 40 7
44 1 10
44 2 5
44 5 8
44 11 9
44 13 3
44 14 7
44 15 10
44 18 2
44 20 3
44 21 9
44 22 6
44 24 9
44 25 6
44 26 1
44 32 7
44 33 3
44 34 1
44 35 1
44 36 4
44 37 8
44 39 4
44 40 6
44 41 1
44 42 10
